benchmarks/VRPTW/TSPTW/solution/n40w20.003.txt.solution
1 13 34 7 2 25 14 3 36 39 38 17 11 6 27 24 4 15 18 22 26 28 9 12 32 23 30 10 33 16 35 21 20 29 8 40 37 5 41 31 19 
478
